(set-info :source |printed by MathSAT|)
(declare-fun |!{$(in_main#0)<N>}| () Int)
(declare-fun |!{$(in_main#0)<N>}.next| () Int)
(declare-fun |!{$(in_main#0)<i>}| () Int)
(declare-fun |!{$(in_main#0)<i>}.next| () Int)
(declare-fun |!{$(in_main#0)<i#1>}| () Int)
(declare-fun |!{$(in_main#0)<i#1>}.next| () Int)
(declare-fun |!{$(in_main#0)<marker>}| () Int)
(declare-fun |!{$(in_main#0)<marker>}.next| () Int)
(declare-fun |!{$(in_main#0)<pos>}| () Int)
(declare-fun |!{$(in_main#0)<pos>}.next| () Int)
(declare-fun |!{$(in_main#0)<a.1>}| () (Array Int Int))
(declare-fun |!{$(in_main#0)<a.1>}.next| () (Array Int Int))
(declare-fun |!{$(in_main#0)<$(in___VERIFIER_nondet_int#0)<h#<__VERIFIER_nondet_int.return>>>}| () Int)
(declare-fun |!{$(in_main#0)<$(in___VERIFIER_nondet_int#1)<h#<__VERIFIER_nondet_int.return>>>}| () Int)
(declare-fun |!{$(in_main#0)<$(in___VERIFIER_nondet_int#2)<h#<__VERIFIER_nondet_int.return>>>}| () Int)
(declare-fun |!{$(in_main#0)<$(in___VERIFIER_nondet_int#3)<h#<__VERIFIER_nondet_int.return>>>}| () Int)
(declare-fun !pc () Int)
(declare-fun !pc.next () Int)
(declare-fun |%{$(in_main#0)<i#1>}#1| () Int)
(declare-fun |%{$(in_main#0)<a.1>}#1| () (Array Int Int))
(define-fun .def_37 () Int (! !pc :next !pc.next))
(define-fun .def_40 () Bool (! (= .def_37 2) :init true))
(define-fun .def_154 () Bool (= .def_37 42))
(define-fun .def_113 () Bool (= !pc.next 71))
(define-fun .def_157 () Bool (and .def_113 .def_154))
(define-fun .def_14 () Int (! |!{$(in_main#0)<marker>}| :next |!{$(in_main#0)<marker>}.next|))
(define-fun .def_16 () Int (! |!{$(in_main#0)<pos>}| :next |!{$(in_main#0)<pos>}.next|))
(define-fun .def_18 () (Array Int Int) (! |!{$(in_main#0)<a.1>}| :next |!{$(in_main#0)<a.1>}.next|))
(define-fun .def_132 () (Array Int Int) (store .def_18 .def_16 .def_14))
(define-fun .def_150 () Bool (= |!{$(in_main#0)<a.1>}.next| .def_132))
(define-fun .def_146 () Bool (= |!{$(in_main#0)<i#1>}.next| 0))
(define-fun .def_10 () Int (! |!{$(in_main#0)<i>}| :next |!{$(in_main#0)<i>}.next|))
(define-fun .def_69 () Bool (= .def_10 |!{$(in_main#0)<i>}.next|))
(define-fun .def_8 () Int (! |!{$(in_main#0)<N>}| :next |!{$(in_main#0)<N>}.next|))
(define-fun .def_68 () Bool (= .def_8 |!{$(in_main#0)<N>}.next|))
(define-fun .def_70 () Bool (and .def_68 .def_69))
(define-fun .def_147 () Bool (and .def_70 .def_146))
(define-fun .def_73 () Bool (= .def_14 |!{$(in_main#0)<marker>}.next|))
(define-fun .def_148 () Bool (and .def_73 .def_147))
(define-fun .def_75 () Bool (= .def_16 |!{$(in_main#0)<pos>}.next|))
(define-fun .def_149 () Bool (and .def_75 .def_148))
(define-fun .def_151 () Bool (and .def_149 .def_150))
(define-fun .def_129 () Bool (<= .def_8 .def_16))
(define-fun .def_130 () Bool (not .def_129))
(define-fun .def_128 () Bool (<= 0 .def_16))
(define-fun .def_131 () Bool (and .def_128 .def_130))
(define-fun .def_152 () Bool (and .def_131 .def_151))
(define-fun .def_124 () Bool (<= .def_8 .def_10))
(define-fun .def_153 () Bool (and .def_124 .def_152))
(define-fun .def_158 () Bool (and .def_153 .def_157))
(define-fun .def_65 () Bool (= !pc.next 42))
(define-fun .def_155 () Bool (and .def_65 .def_154))
(define-fun .def_126 () (Array Int Int) (store .def_18 .def_10 |!{$(in_main#0)<$(in___VERIFIER_nondet_int#3)<h#<__VERIFIER_nondet_int.return>>>}|))
(define-fun .def_143 () Bool (= |!{$(in_main#0)<a.1>}.next| .def_126))
(define-fun .def_136 () Int (* (- 1) |!{$(in_main#0)<i>}.next|))
(define-fun .def_137 () Int (+ .def_10 .def_136))
(define-fun .def_138 () Bool (= .def_137 (- 1)))
(define-fun .def_139 () Bool (and .def_68 .def_138))
(define-fun .def_12 () Int (! |!{$(in_main#0)<i#1>}| :next |!{$(in_main#0)<i#1>}.next|))
(define-fun .def_71 () Bool (= .def_12 |!{$(in_main#0)<i#1>}.next|))
(define-fun .def_140 () Bool (and .def_71 .def_139))
(define-fun .def_141 () Bool (and .def_73 .def_140))
(define-fun .def_142 () Bool (and .def_75 .def_141))
(define-fun .def_144 () Bool (and .def_142 .def_143))
(define-fun .def_125 () Bool (not .def_124))
(define-fun .def_145 () Bool (and .def_125 .def_144))
(define-fun .def_156 () Bool (and .def_145 .def_155))
(define-fun .def_159 () Bool (or .def_156 .def_158))
(define-fun .def_112 () Bool (= .def_37 71))
(define-fun .def_81 () Bool (= !pc.next 0))
(define-fun .def_120 () Bool (and .def_81 .def_112))
(define-fun .def_87 () Bool (<= .def_12 .def_16))
(define-fun .def_88 () Int (ite .def_87 1 0))
(define-fun .def_89 () Bool (= .def_88 0))
(define-fun .def_90 () Bool (not .def_89))
(define-fun .def_77 () Bool (= .def_18 |!{$(in_main#0)<a.1>}.next|))
(define-fun .def_72 () Bool (and .def_70 .def_71))
(define-fun .def_74 () Bool (and .def_72 .def_73))
(define-fun .def_76 () Bool (and .def_74 .def_75))
(define-fun .def_78 () Bool (and .def_76 .def_77))
(define-fun .def_109 () Bool (and .def_78 .def_90))
(define-fun .def_83 () Int (select .def_18 .def_12))
(define-fun .def_84 () Bool (= .def_14 .def_83))
(define-fun .def_110 () Bool (and .def_84 .def_109))
(define-fun .def_121 () Bool (and .def_110 .def_120))
(define-fun .def_116 () Bool (= !pc.next 94))
(define-fun .def_117 () Bool (and .def_112 .def_116))
(define-fun .def_102 () Bool (and .def_68 .def_89))
(define-fun .def_103 () Bool (and .def_69 .def_102))
(define-fun .def_104 () Bool (and .def_71 .def_103))
(define-fun .def_105 () Bool (and .def_73 .def_104))
(define-fun .def_106 () Bool (and .def_75 .def_105))
(define-fun .def_107 () Bool (and .def_77 .def_106))
(define-fun .def_108 () Bool (and .def_84 .def_107))
(define-fun .def_118 () Bool (and .def_108 .def_117))
(define-fun .def_114 () Bool (and .def_112 .def_113))
(define-fun .def_94 () Int (* (- 1) |!{$(in_main#0)<i#1>}.next|))
(define-fun .def_95 () Int (+ .def_12 .def_94))
(define-fun .def_96 () Bool (= .def_95 (- 1)))
(define-fun .def_97 () Bool (and .def_70 .def_96))
(define-fun .def_98 () Bool (and .def_73 .def_97))
(define-fun .def_99 () Bool (and .def_75 .def_98))
(define-fun .def_100 () Bool (and .def_77 .def_99))
(define-fun .def_85 () Bool (not .def_84))
(define-fun .def_101 () Bool (and .def_85 .def_100))
(define-fun .def_115 () Bool (and .def_101 .def_114))
(define-fun .def_119 () Bool (or .def_115 .def_118))
(define-fun .def_122 () Bool (or .def_119 .def_121))
(define-fun .def_66 () Bool (and .def_40 .def_65))
(define-fun .def_62 () Bool (= |!{$(in_main#0)<a.1>}.next| |%{$(in_main#0)<a.1>}#1|))
(define-fun .def_60 () Bool (= |!{$(in_main#0)<pos>}.next| |!{$(in_main#0)<$(in___VERIFIER_nondet_int#2)<h#<__VERIFIER_nondet_int.return>>>}|))
(define-fun .def_58 () Bool (= |!{$(in_main#0)<marker>}.next| |!{$(in_main#0)<$(in___VERIFIER_nondet_int#1)<h#<__VERIFIER_nondet_int.return>>>}|))
(define-fun .def_56 () Bool (= |!{$(in_main#0)<i#1>}.next| |%{$(in_main#0)<i#1>}#1|))
(define-fun .def_54 () Bool (= |!{$(in_main#0)<i>}.next| 0))
(define-fun .def_53 () Bool (= |!{$(in_main#0)<N>}.next| |!{$(in_main#0)<$(in___VERIFIER_nondet_int#0)<h#<__VERIFIER_nondet_int.return>>>}|))
(define-fun .def_55 () Bool (and .def_53 .def_54))
(define-fun .def_57 () Bool (and .def_55 .def_56))
(define-fun .def_59 () Bool (and .def_57 .def_58))
(define-fun .def_61 () Bool (and .def_59 .def_60))
(define-fun .def_63 () Bool (and .def_61 .def_62))
(define-fun .def_67 () Bool (and .def_63 .def_66))
(define-fun .def_123 () Bool (or .def_67 .def_122))
(define-fun .def_160 () Bool (! (or .def_123 .def_159) :trans true))
(define-fun .def_80 () Bool (= .def_37 94))
(define-fun .def_161 () Bool (! (not .def_80) :invar-property 0 :invar-property-name ||))
(assert true)
